Instance: Data/Instances_txt/inst_100_30_2.txt
SetUpTime: 103.97556591033936

Gurobi 10.0.1 (mac64[x86]) logging started Di  1 Aug 17:38:08 2023

Set parameter LogFile to value "Output/MILP_inst_100_30_2_2023-08-01_16-28-50.txt"
Set parameter TimeLimit to value 2700

Gurobi 10.0.1 (mac64[x86]) logging started Di  1 Aug 17:38:08 2023

Set parameter LogFile to value "Output/MILP_inst_100_30_2_2023-08-01_16-28-50.txt"
Gurobi Optimizer version 10.0.1 build v10.0.1rc0 (mac64[x86])

CPU model: Intel(R) Core(TM) i5-1038NG7 CPU @ 2.00GHz
Thread count: 4 physical cores, 8 logical processors, using up to 8 threads

Optimize a model with 201 rows, 87965 columns and 660632 nonzeros
Model fingerprint: 0xb07b3e2c
Variable types: 0 continuous, 87965 integer (0 binary)
Coefficient statistics:
  Matrix range     [1e+00, 1e+00]
  Objective range  [2e+00, 1e+04]
  Bounds range     [1e+00, 1e+00]
  RHS range        [1e+00, 1e+00]
Presolve removed 0 rows and 1 columns
Presolve time: 0.80s
Presolved: 201 rows, 87964 columns, 660623 nonzeros
Variable types: 0 continuous, 87964 integer (87964 binary)

Starting sifting (using dual simplex for sub-problems)...

    Iter     Pivots    Primal Obj      Dual Obj        Time
       0          0     infinity      0.0000000e+00      3s
       1       1109   1.0200000e+08   2.0191348e+02      3s
       2       2124   9.9512435e+07   3.9021911e+03      3s
       3       2828   9.3840792e+07   6.0756155e+03      3s
       4       3557   8.6036458e+07   9.3448646e+03      3s
       5       4892   7.7110603e+07   1.1880468e+04      3s
       6       6399   7.1687691e+07   1.6319125e+04      3s
       7       9131   6.5576814e+07   1.7097287e+04      3s
       8      10850   5.8633695e+07   1.9380087e+04      3s
       9      12685   5.1009262e+07   1.9584588e+04      3s
      10      13877   5.0045543e+07   2.1035250e+04      3s
      11      15070   4.1607617e+07   2.1899780e+04      3s
      12      18099   3.7417409e+07   2.3628025e+04      3s
      13      22241   2.5830173e+07   2.3672077e+04      4s
      14      26714   2.3461879e+07   2.5187116e+04      4s
      15      30387   1.8566846e+07   2.5263908e+04      4s
      16      32373   1.8364973e+07   2.5627858e+04      4s
      17      35732   1.2165332e+07   2.6086843e+04      5s
      18      40837   3.9000644e+06   2.6418851e+04      5s
      19      43753   3.2918388e+04  -2.4784344e+05      5s
      20      46764   3.1530663e+04  -2.2351674e+05      6s
      21      48748   3.0987157e+04  -1.0866448e+05      6s
      22      50073   3.0819628e+04  -3.4164846e+04      6s
      23      51540   3.0753330e+04   2.7244934e+04      6s

Sifting complete


Root simplex log...

Iteration    Objective       Primal Inf.    Dual Inf.      Time
   51954    3.1794313e+04   0.000000e+00   0.000000e+00      6s

Root relaxation: objective 3.179431e+04, 51954 iterations, 3.65 seconds (4.84 work units)

    Nodes    |    Current Node    |     Objective Bounds      |     Work
 Expl Unexpl |  Obj  Depth IntInf | Incumbent    BestBd   Gap | It/Node Time

     0     0 31794.3135    0  163          - 31794.3135      -     -    7s
     0     0 31795.1851    0  167          - 31795.1851      -     -    7s
     0     0 31798.4771    0  168          - 31798.4771      -     -    7s
     0     0 31806.6385    0  158          - 31806.6385      -     -   12s
     0     0 31809.5612    0  163          - 31809.5612      -     -   22s
     0     0 31809.7522    0  163          - 31809.7522      -     -   22s
     0     0 31809.7580    0  164          - 31809.7580      -     -   22s
     0     0 31810.4418    0  165          - 31810.4418      -     -   22s
     0     0 31810.5342    0  167          - 31810.5342      -     -   23s
     0     0 32002.8113    0  175          - 32002.8113      -     -   30s
     0     0 32009.3256    0  184          - 32009.3256      -     -   30s
     0     0 32012.4243    0  187          - 32012.4243      -     -   31s
     0     0 32015.0593    0  186          - 32015.0593      -     -   31s
     0     0 32017.1122    0  187          - 32017.1122      -     -   31s
     0     0 32018.2008    0  180          - 32018.2008      -     -   31s
     0     0 32018.9869    0  192          - 32018.9869      -     -   32s
     0     0 32022.0258    0  194          - 32022.0258      -     -   32s
     0     0 32023.2867    0  192          - 32023.2867      -     -   32s
     0     0 32023.4947    0  194          - 32023.4947      -     -   32s
     0     0 32104.7974    0  196          - 32104.7974      -     -   34s
     0     0 32104.7975    0  192          - 32104.7975      -     -   34s
     0     0 32124.5615    0  206          - 32124.5615      -     -   36s
     0     0 32128.4977    0  209          - 32128.4977      -     -   36s
     0     0 32242.8541    0  228          - 32242.8541      -     -   42s
     0     0 32266.2264    0  222          - 32266.2264      -     -   49s
     0     0 32266.3399    0  203          - 32266.3399      -     -   49s
     0     0 32266.4008    0  218          - 32266.4008      -     -   49s
     0     0 32266.4531    0  213          - 32266.4531      -     -   49s
     0     0 32272.6338    0  243          - 32272.6338      -     -   50s
     0     0 32272.8678    0  236          - 32272.8678      -     -   51s
     0     0 32316.1154    0  248          - 32316.1154      -     -   55s
     0     0 32316.5572    0  245          - 32316.5572      -     -   55s
     0     0 32316.6140    0  241          - 32316.6140      -     -   56s
     0     0 32316.6267    0  242          - 32316.6267      -     -   56s
     0     0 32324.6714    0  260          - 32324.6714      -     -   57s
     0     0 32324.6927    0  258          - 32324.6927      -     -   58s
     0     0 32325.5608    0  266          - 32325.5608      -     -   58s
     0     0 32325.5824    0  264          - 32325.5824      -     -   58s
     0     0 32325.7195    0  267          - 32325.7195      -     -   59s
     0     0 32358.7326    0  272          - 32358.7326      -     -   63s
     0     0 32358.8272    0  278          - 32358.8272      -     -   63s
     0     0 32361.7305    0  275          - 32361.7305      -     -   65s
     0     0 32361.7441    0  274          - 32361.7441      -     -   65s
     0     0 32361.7442    0  276          - 32361.7442      -     -   65s
     0     0 32361.7543    0  275          - 32361.7543      -     -   65s
     0     0 32361.7556    0  277          - 32361.7556      -     -   65s
     0     0 32361.8224    0  280          - 32361.8224      -     -   65s
     0     0 32361.8231    0  282          - 32361.8231      -     -   65s
     0     0 32379.2410    0  298          - 32379.2410      -     -   69s
     0     0 32380.5006    0  305          - 32380.5006      -     -   70s
     0     0 32380.5839    0  308          - 32380.5839      -     -   70s
H    0     0                    36330.000000 32380.5839  10.9%     -   71s
H    0     0                    35467.000000 32380.5839  8.70%     -   73s
H    0     0                    35353.000000 32380.5839  8.41%     -   73s
     0     0 32394.4714    0  303 35353.0000 32394.4714  8.37%     -   74s
H    0     0                    35228.000000 32394.4714  8.04%     -   84s
     0     0 32395.7926    0  309 35228.0000 32395.7926  8.04%     -   85s
     0     0 32395.9782    0  309 35228.0000 32395.9782  8.04%     -   85s
     0     0 32404.8612    0  341 35228.0000 32404.8612  8.01%     -   88s
H    0     0                    34789.000000 32404.8612  6.85%     -  124s
H    0     0                    34572.000000 32404.8612  6.27%     -  124s
     0     0 32407.1381    0  343 34572.0000 32407.1381  6.26%     -  125s
     0     0 32407.1452    0  346 34572.0000 32407.1452  6.26%     -  125s
     0     0 32413.2127    0  355 34572.0000 32413.2127  6.24%     -  128s
     0     0 32413.4303    0  358 34572.0000 32413.4303  6.24%     -  129s
H    0     0                    34217.000000 32413.4303  5.27%     -  132s
     0     0 32419.3430    0  348 34217.0000 32419.3430  5.25%     -  133s
     0     0 32419.3430    0  348 34217.0000 32419.3430  5.25%     -  134s
     0     0 32440.0000    0  164 34217.0000 32440.0000  5.19%     -  156s
H    0     0                    33762.000000 32440.0000  3.92%     -  161s
     0     0 32440.0000    0  194 33762.0000 32440.0000  3.92%     -  162s
H    0     0                    33500.000000 32440.0000  3.16%     -  166s
     0     0 32440.0000    0  202 33500.0000 32440.0000  3.16%     -  168s
     0     0 32440.0000    0  203 33500.0000 32440.0000  3.16%     -  168s
     0     0 32440.0000    0  203 33500.0000 32440.0000  3.16%     -  168s
     0     0 32440.0000    0  212 33500.0000 32440.0000  3.16%     -  171s
     0     0 32440.0000    0  229 33500.0000 32440.0000  3.16%     -  173s
     0     0 32440.0000    0  253 33500.0000 32440.0000  3.16%     -  177s
     0     0 32440.0000    0  261 33500.0000 32440.0000  3.16%     -  179s
     0     0 32440.0000    0  262 33500.0000 32440.0000  3.16%     -  179s
     0     0 32440.0000    0  262 33500.0000 32440.0000  3.16%     -  179s
     0     0 32440.0000    0  274 33500.0000 32440.0000  3.16%     -  182s
     0     0 32440.0000    0  274 33500.0000 32440.0000  3.16%     -  182s
     0     0 32440.0000    0  285 33500.0000 32440.0000  3.16%     -  183s
     0     0 32440.0000    0  290 33500.0000 32440.0000  3.16%     -  184s
     0     0 32440.0000    0  295 33500.0000 32440.0000  3.16%     -  187s
     0     0 32440.0000    0  296 33500.0000 32440.0000  3.16%     -  187s
     0     0 32440.0000    0  320 33500.0000 32440.0000  3.16%     -  189s
     0     0 32440.0000    0  337 33500.0000 32440.0000  3.16%     -  192s
     0     0 32440.0000    0  329 33500.0000 32440.0000  3.16%     -  193s
     0     0 32440.0000    0  341 33500.0000 32440.0000  3.16%     -  194s
     0     0 32440.0000    0  347 33500.0000 32440.0000  3.16%     -  194s
     0     0 32440.0000    0  348 33500.0000 32440.0000  3.16%     -  194s
     0     0 32440.0000    0  360 33500.0000 32440.0000  3.16%     -  198s
     0     0 32440.0000    0  359 33500.0000 32440.0000  3.16%     -  203s
     0     0 32440.0000    0  370 33500.0000 32440.0000  3.16%     -  206s
     0     0 32440.0000    0  370 33500.0000 32440.0000  3.16%     -  206s
     0     0 32440.0000    0  370 33500.0000 32440.0000  3.16%     -  207s
     0     0 32440.0000    0  164 33500.0000 32440.0000  3.16%     -  245s
H    0     0                    33468.000000 32440.0000  3.07%     -  246s
     0     0 32440.0000    0  188 33468.0000 32440.0000  3.07%     -  250s
     0     0 32440.0000    0  202 33468.0000 32440.0000  3.07%     -  255s
     0     0 32440.0000    0  217 33468.0000 32440.0000  3.07%     -  257s
     0     0 32440.0000    0  233 33468.0000 32440.0000  3.07%     -  258s
     0     0 32440.0000    0  234 33468.0000 32440.0000  3.07%     -  258s
     0     0 32440.0000    0  241 33468.0000 32440.0000  3.07%     -  261s
     0     0 32440.0000    0  239 33468.0000 32440.0000  3.07%     -  264s
     0     0 32440.0000    0  239 33468.0000 32440.0000  3.07%     -  264s
     0     0 32440.0000    0  239 33468.0000 32440.0000  3.07%     -  264s
     0     0 32440.0000    0  238 33468.0000 32440.0000  3.07%     -  264s
     0     0 32440.0000    0  238 33468.0000 32440.0000  3.07%     -  264s
     0     0 32440.0000    0  260 33468.0000 32440.0000  3.07%     -  266s
     0     0 32440.0000    0  271 33468.0000 32440.0000  3.07%     -  268s
     0     0 32440.0000    0  290 33468.0000 32440.0000  3.07%     -  269s
     0     0 32440.0000    0  284 33468.0000 32440.0000  3.07%     -  271s
     0     0 32440.0000    0  301 33468.0000 32440.0000  3.07%     -  274s
     0     0 32440.0000    0  316 33468.0000 32440.0000  3.07%     -  277s
     0     0 32440.0000    0  313 33468.0000 32440.0000  3.07%     -  277s
     0     0 32440.0000    0  317 33468.0000 32440.0000  3.07%     -  277s
     0     0 32440.0000    0  319 33468.0000 32440.0000  3.07%     -  281s
     0     0 32440.0000    0  319 33468.0000 32440.0000  3.07%     -  281s
     0     0 32440.0000    0  319 33468.0000 32440.0000  3.07%     -  281s
     0     0 32440.0000    0  337 33468.0000 32440.0000  3.07%     -  284s
     0     0 32440.0000    0  363 33468.0000 32440.0000  3.07%     -  285s
     0     0 32440.0000    0  362 33468.0000 32440.0000  3.07%     -  286s
     0     0 32440.0000    0  363 33468.0000 32440.0000  3.07%     -  286s
     0     0 32440.0000    0  373 33468.0000 32440.0000  3.07%     -  289s
H    0     0                    33413.000000 32440.0000  2.91%     -  291s
     0     0 32440.0000    0  368 33413.0000 32440.0000  2.91%     -  291s
     0     0 32440.0000    0  385 33413.0000 32440.0000  2.91%     -  295s
     0     0 32440.0000    0  389 33413.0000 32440.0000  2.91%     -  295s
     0     0 32440.0000    0  380 33413.0000 32440.0000  2.91%     -  295s
     0     0 32440.0000    0  380 33413.0000 32440.0000  2.91%     -  296s
     0     2 32440.0000    0  380 33413.0000 32440.0000  2.91%     -  326s
     1     4 32440.0000    1  383 33413.0000 32440.0000  2.91%   389  330s
     3     8 32440.0000    2  374 33413.0000 32440.0000  2.91%   939  335s
    11    16 32466.1501    3  338 33413.0000 32440.0000  2.91%  1240  342s
    15    20 32509.2949    4  314 33413.0000 32440.0000  2.91%  1303  349s
    19    24 32440.0000    4  372 33413.0000 32440.0000  2.91%  1373  352s
    23    28 32454.4846    5  322 33413.0000 32440.0000  2.91%  1349  355s
    27    32 32553.2577    5  300 33413.0000 32454.4846  2.87%  1356  360s
    35    40 32468.5204    6  328 33413.0000 32466.1501  2.83%  1286  368s
H   38    40                    33018.000000 32466.1501  1.67%  1236  368s
    39    44 32507.8380    7  308 33018.0000 32466.1501  1.67%  1287  371s
    43    48 32477.3612    7  312 33018.0000 32466.1501  1.67%  1290  375s
    47    51 32557.4966    8  257 33018.0000 32466.1501  1.67%  1375  380s
    59    57 32466.1501    0  158 33018.0000 32466.1501  1.67%  1301  440s
    61    58 32466.1501    0  168 33018.0000 32466.1501  1.67%  1258  451s
    64    60 32466.1501    0  203 33018.0000 32466.1501  1.67%  1199  455s
    67    62 32466.1501    0  246 33018.0000 32466.1501  1.67%  1145  460s
    69    64 32466.1501    0  277 33018.0000 32466.1501  1.67%  1112  465s
    72    66 32466.1501    0  327 33018.0000 32466.1501  1.67%  1066  470s
    74    67 32466.1501    0  352 33018.0000 32466.1501  1.67%  1037  475s
    76    68 32466.1501    0  377 33018.0000 32466.1501  1.67%  1010  481s
    77    69 32466.1501    0  397 33018.0000 32466.1501  1.67%   997  485s
    80    71 32466.1501    0  397 33018.0000 32466.1501  1.67%   959  525s
    81    75 32466.1501   16  384 33018.0000 32466.1501  1.67%  1203  534s
    83    78 32466.1501   17  384 33018.0000 32466.1501  1.67%  1245  541s
    87    81 32466.1501   18  386 33018.0000 32466.1501  1.67%  1305  545s
    91    83 32480.7504   18  360 33018.0000 32466.1501  1.67%  1339  550s
    95    86 32487.7944   19  351 33018.0000 32466.1501  1.67%  1402  555s
   103    91 32530.6183   20  318 33018.0000 32480.7504  1.63%  1456  563s
   107    94 32490.4784   20  337 33018.0000 32480.7504  1.63%  1458  568s
   111    97 32498.0756   21  324 33018.0000 32480.7504  1.63%  1491  571s
   121   100 32514.0564   22  323 33018.0000 32480.7504  1.63%  1466  577s
   127   103 32522.0855   23  321 33018.0000 32480.7504  1.63%  1469  582s
   134   110 32530.1675   24  316 33018.0000 32480.7504  1.63%  1467  586s
   150   109 32607.4475   25  318 33018.0000 32480.7504  1.63%  1409  593s
   159   114 32563.5313   26  320 33018.0000 32480.7504  1.63%  1373  596s
   167   116 32666.7814   27  290 33018.0000 32480.7504  1.63%  1375  600s
   186   130 32594.8526   28  318 33018.0000 32480.7504  1.63%  1317  606s
   195   135 32682.1514   29  306 33018.0000 32480.7504  1.63%  1312  610s
   215   146     cutoff   31      33018.0000 32480.7504  1.63%  1279  617s
   227   156 32741.6807   30  290 33018.0000 32480.7504  1.63%  1275  621s
   256   174     cutoff   33      33018.0000 32480.7504  1.63%  1209  627s
   275   177     cutoff   34      33018.0000 32480.7504  1.63%  1169  632s
   298   173 32516.1365   20  341 33018.0000 32480.7504  1.63%  1130  637s
*  308   173              40    33014.000000 32480.7504  1.62%  1118  637s
*  309   173              40    32949.000000 32480.7504  1.42%  1115  637s
   322   176 32578.2362   21  328 32949.0000 32480.7504  1.42%  1092  642s
H  323   176                    32724.000000 32480.7504  0.74%  1089  642s
   332   177 32519.8343   21  333 32724.0000 32480.7504  0.74%  1074  646s
   348   181 32524.4940   23  337 32724.0000 32480.7504  0.74%  1065  650s
   373   182 32613.4231   25  318 32724.0000 32480.7504  0.74%  1039  655s
   399    80 32480.7504    0  158 32724.0000 32480.7504  0.74%  1000  683s
   401    81 32480.7504    0  129 32724.0000 32480.7504  0.74%   995  688s
   404    83 32480.7504    0  199 32724.0000 32480.7504  0.74%   987  691s
   409    87 32480.7504    0  244 32724.0000 32480.7504  0.74%   975  695s
   413    89 32480.7504    0  299 32724.0000 32480.7504  0.74%   966  700s
   416    91 32495.7318    0  314 32724.0000 32495.7318  0.70%   959  705s
   419    93 32505.9980    0  336 32724.0000 32505.9980  0.67%   952  710s
   423    97 32505.9980    0  151 32724.0000 32505.9980  0.67%   994  717s
   427   100 32505.9980    0  200 32724.0000 32505.9980  0.67%   985  720s
   431   103 32505.9980    0  298 32724.0000 32505.9980  0.67%   976  725s
   435   105 32516.6276    0  295 32724.0000 32516.6276  0.63%   967  730s
   439   108 32539.1644    0  357 32724.0000 32539.1644  0.56%   958  735s
   441   111 32549.1031    0  158 32724.0000 32549.1031  0.53%   993  740s
   447   115 32549.1031    0  205 32724.0000 32549.1031  0.53%   979  745s
   451   118 32549.1031    0  262 32724.0000 32549.1031  0.53%   971  750s
   455   120 32549.1031    0  324 32724.0000 32549.1031  0.53%   962  756s
   457   122 32575.9502    0  303 32724.0000 32575.9502  0.45%   958  761s
   460   124 32589.7331    0  295 32724.0000 32589.7331  0.41%   952  765s
   466   129 32589.7331    0  183 32724.0000 32589.7331  0.41%   979  770s
   472   133 32589.7331    0  313 32724.0000 32589.7331  0.41%   966  775s
   481   140 32597.7976    0  114 32724.0000 32597.7976  0.39%   974  781s
   487   144 32597.7976    0  279 32724.0000 32597.7976  0.39%   962  785s
   497   152 32603.4364    0  145 32724.0000 32603.4364  0.37%   965  790s
   505   158 32603.4364    0  253 32724.0000 32603.4364  0.37%   950  795s
   521   171 32604.6858    0  167 32724.0000 32604.6858  0.36%   954  800s
   555   197 32657.5079    0  204 32724.0000 32657.5079  0.20%   918  805s

Cutting planes:
  Clique: 34
  MIR: 1
  Flow cover: 2
  Zero half: 15
  RLT: 89

Explored 583 nodes (753947 simplex iterations) in 807.13 seconds (1097.82 work units)
Thread count was 8 (of 8 available processors)

Solution count 10: 32724 32949 33014 ... 34572

Optimal solution found (tolerance 1.00e-04)
Best objective 3.272400000000e+04, best bound 3.272300000000e+04, gap 0.0031%

User-callback calls 112770, time in user-callback 0.26 sec

=========================

OUTPUT STATISTICS
Relaxed: false
Time since start: 913.5061829090118
SetUpTime: 103.97556591033936
Objective value: 32724.0
Number of variables: 87965
Solving time: 809.485316991806
